
n_res = 4;
rcap = [35, 38, 407, 427];
rtype = [1, 1, 2, 2];
n_tasks = 100;
modes =  [{1, 2, 3}, {4, 5, 6}, {7, 8, 9}, {10, 11, 12}, {13, 14, 15}, {16, 17, 18}, {19, 20, 21}, {22, 23, 24}, {25, 26, 27}, {28, 29, 30}, {31, 32, 33}, {34, 35, 36}, {37, 38, 39}, {40, 41, 42}, {43, 44, 45}, {46, 47, 48}, {49, 50, 51}, {52, 53, 54}, {55, 56, 57}, {58, 59, 60}, {61, 62, 63}, {64, 65, 66}, {67, 68, 69}, {70, 71, 72}, {73, 74, 75}, {76, 77, 78}, {79, 80, 81}, {82, 83, 84}, {85, 86, 87}, {88, 89, 90}, {91, 92, 93}, {94, 95, 96}, {97, 98, 99}, {100, 101, 102}, {103, 104, 105}, {106, 107, 108}, {109, 110, 111}, {112, 113, 114}, {115, 116, 117}, {118, 119, 120}, {121, 122, 123}, {124, 125, 126}, {127, 128, 129}, {130, 131, 132}, {133, 134, 135}, {136, 137, 138}, {139, 140, 141}, {142, 143, 144}, {145, 146, 147}, {148, 149, 150}, {151, 152, 153}, {154, 155, 156}, {157, 158, 159}, {160, 161, 162}, {163, 164, 165}, {166, 167, 168}, {169, 170, 171}, {172, 173, 174}, {175, 176, 177}, {178, 179, 180}, {181, 182, 183}, {184, 185, 186}, {187, 188, 189}, {190, 191, 192}, {193, 194, 195}, {196, 197, 198}, {199, 200, 201}, {202, 203, 204}, {205, 206, 207}, {208, 209, 210}, {211, 212, 213}, {214, 215, 216}, {217, 218, 219}, {220, 221, 222}, {223, 224, 225}, {226, 227, 228}, {229, 230, 231}, {232, 233, 234}, {235, 236, 237}, {238, 239, 240}, {241, 242, 243}, {244, 245, 246}, {247, 248, 249}, {250, 251, 252}, {253, 254, 255}, {256, 257, 258}, {259, 260, 261}, {262, 263, 264}, {265, 266, 267}, {268, 269, 270}, {271, 272, 273}, {274, 275, 276}, {277, 278, 279}, {280, 281, 282}, {283, 284, 285}, {286, 287, 288}, {289, 290, 291}, {292, 293, 294}, {295, 296, 297}, {298, 299, 300}];
succ =  [{53, 45, 38, 37, 36, 34, 33, 31, 26, 25, 16, 15}, {37, 33, 28, 25, 21, 14, 10}, {38, 34, 28, 16, 13, 10}, {44, 43, 34, 28, 24, 21, 13}, {53, 48, 36, 33, 31, 28, 16}, {53, 48, 38, 34, 28, 16}, {61, 53, 48, 41, 16}, {59, 54, 51, 47, 45, 44, 43, 42, 38, 37, 33, 29}, {53, 52, 51, 50, 47, 46, 38, 37, 34, 32, 27}, {61, 55, 53, 44, 43, 29, 27, 24}, {55, 53, 41, 40, 33, 30, 27, 26}, {74, 55, 54, 52, 48, 43, 41, 34, 33, 31}, {53, 50, 47, 46, 45, 41, 37, 32, 27}, {61, 55, 54, 48, 45, 43, 42, 31, 29}, {52, 44, 39, 32, 28, 27}, {71, 55, 50, 46, 44, 43, 27, 24}, {66, 61, 55, 53, 47, 46, 45, 44, 41, 27}, {74, 73, 71, 62, 57, 55, 54, 52, 49, 48, 46, 43, 42, 34}, {74, 71, 54, 52, 50, 46, 43, 42, 39, 35}, {74, 71, 61, 59, 58, 48, 46, 45, 31}, {100, 77, 75, 74, 72, 71, 67, 66, 63, 62, 61, 60, 59, 58, 57, 52, 50, 49, 47, 46}, {100, 63, 59, 57, 55, 53, 52, 51, 49, 46, 43, 41}, {100, 73, 71, 66, 61, 57, 55, 51, 49, 47, 46, 42}, {100, 75, 73, 69, 67, 62, 60, 52, 51, 49, 47, 42}, {75, 74, 72, 71, 66, 65, 60, 57, 54, 50, 46, 44}, {73, 71, 67, 66, 59, 51, 49, 47, 46, 42}, {75, 74, 70, 67, 60, 59, 57, 56, 54, 49, 42}, {100, 97, 74, 72, 67, 65, 63, 61, 55, 50, 41}, {100, 74, 72, 67, 63, 50, 49, 46, 41}, {100, 83, 80, 77, 74, 72, 71, 63, 60, 59, 57, 49, 43}, {99, 83, 77, 75, 73, 72, 66, 60, 57, 49, 47, 44}, {76, 75, 74, 72, 69, 67, 62, 61, 60, 58, 56, 55, 49, 48}, {100, 77, 72, 70, 67, 66, 57, 50, 49, 46}, {98, 83, 77, 76, 75, 72, 69, 67, 66, 63, 61, 60, 59, 58, 56}, {100, 99, 97, 95, 75, 73, 72, 70, 68, 67, 66, 63, 61, 60, 49}, {99, 96, 93, 80, 77, 76, 74, 73, 72, 69, 68, 65, 63, 60, 58, 54}, {100, 99, 95, 77, 76, 73, 70, 57, 56, 55, 49}, {99, 98, 96, 95, 83, 82, 75, 73, 71, 69, 68, 67, 66, 64, 63, 61, 60}, {97, 80, 76, 72, 69, 68, 67, 62, 59, 49}, {100, 97, 80, 77, 76, 72, 59, 56, 49}, {99, 98, 82, 80, 77, 76, 73, 71, 70, 69, 62, 60, 56}, {99, 95, 93, 83, 81, 80, 77, 76, 72, 68, 65, 63, 58}, {98, 97, 95, 76, 70, 69, 67, 66, 65, 64, 56}, {98, 97, 93, 80, 70, 67, 64, 63, 62, 56}, {98, 97, 95, 94, 93, 89, 83, 79, 75, 72, 70, 68, 64}, {99, 97, 93, 89, 83, 82, 76, 69, 64, 56}, {98, 95, 93, 76, 70, 65, 64, 56}, {100, 99, 97, 96, 91, 89, 86, 79, 78, 77, 66}, {98, 96, 93, 90, 82, 81, 79, 78, 65, 64}, {95, 94, 93, 83, 82, 80, 76, 73, 69}, {95, 93, 89, 83, 82, 80, 79, 74, 68, 64}, {94, 93, 92, 89, 83, 82, 81, 80, 76, 68}, {94, 93, 90, 87, 80, 79, 74, 68, 64}, {100, 98, 97, 95, 92, 91, 89, 88, 87, 86, 79, 78}, {96, 92, 90, 89, 87, 80, 79, 78, 64}, {96, 94, 90, 87, 86, 81, 79, 68}, {97, 94, 92, 90, 89, 87, 81, 69}, {97, 92, 87, 79, 78, 64}, {99, 95, 94, 91, 87, 86, 85, 78}, {94, 90, 87, 86, 81, 79, 78}, {93, 89, 87, 86, 85, 80, 78}, {95, 92, 91, 86, 79, 78}, {92, 90, 89, 87, 85, 84}, {91, 88, 86, 85, 84}, {92, 89, 88, 87, 84}, {93, 90, 88, 87, 85}, {89, 86, 84, 79}, {88, 85, 78}, {86, 84, 79}, {92, 86, 78}, {93, 86, 78}, {90, 88, 84}, {91, 90, 89}, {86, 85, 84}, {85, 80}, {88, 85}, {94, 92}, {84}, {85}, {84}, {84}, {86}, {87}, {}, {}, {}, {}, {}, {}, {}, {}, {}, {}, {}, {}, {}, {}, {}, {}, {}];
n_opt = 300;
dur = [4, 6, 9, 3, 5, 6, 3, 5, 7, 1, 2, 3, 4, 8, 8, 1, 4, 9, 2, 3, 4, 2, 4, 7, 1, 2, 10, 1, 5, 8, 1, 2, 9, 3, 8, 8, 2, 7, 7, 2, 6, 10, 1, 4, 7, 5, 5, 8, 3, 6, 7, 3, 4, 4, 4, 10, 10, 2, 4, 7, 4, 7, 8, 1, 8, 9, 1, 2, 6, 6, 9, 10, 5, 5, 7, 2, 3, 4, 4, 4, 7, 1, 2, 4, 2, 3, 9, 1, 2, 7, 3, 4, 10, 8, 8, 9, 3, 6, 9, 1, 5, 5, 6, 7, 10, 4, 6, 10, 2, 4, 7, 3, 4, 4, 1, 2, 8, 2, 4, 10, 2, 6, 10, 3, 3, 9, 4, 5, 9, 5, 6, 9, 4, 6, 6, 1, 3, 5, 1, 3, 10, 6, 7, 9, 4, 5, 5, 9, 10, 10, 5, 8, 10, 4, 6, 9, 1, 5, 6, 1, 3, 5, 6, 6, 8, 6, 7, 9, 1, 4, 8, 5, 6, 9, 5, 9, 10, 2, 4, 4, 5, 8, 9, 3, 4, 6, 1, 3, 9, 1, 7, 7, 3, 6, 10, 4, 8, 9, 1, 6, 8, 4, 8, 10, 1, 2, 5, 2, 3, 9, 3, 8, 9, 1, 3, 10, 6, 8, 10, 1, 5, 9, 4, 6, 6, 1, 5, 10, 5, 9, 9, 2, 8, 9, 1, 6, 8, 2, 3, 10, 3, 3, 8, 2, 5, 10, 1, 1, 8, 2, 5, 9, 4, 4, 6, 5, 8, 9, 1, 1, 9, 2, 4, 6, 1, 3, 5, 4, 6, 8, 5, 5, 9, 1, 4, 5, 1, 6, 9, 3, 6, 10, 2, 2, 3, 1, 2, 6, 2, 3, 3, 1, 3, 7, 3, 4, 5, 2, 9, 10];
rreq = [|0, 3, 0, 2, 0, 0, 2, 0, 0, 0, 3, 3, 0, 2, 2, 1, 1, 1, 3, 3, 0, 1, 0, 1, 0, 3, 0, 0, 3, 0, 2, 0, 1, 3, 3, 0, 0, 1, 1, 0, 0, 0, 4, 4, 0, 2, 0, 0, 4, 2, 2, 4, 4, 0, 0, 3, 3, 3, 3, 0, 3, 0, 2, 0, 0, 0, 4, 0, 0, 0, 0, 3, 0, 0, 4, 0, 0, 2, 0, 1, 0, 0, 0, 0, 0, 0, 4, 5, 4, 2, 0, 4, 4, 0, 0, 0, 2, 1, 0, 0, 0, 3, 5, 0, 0, 0, 0, 2, 5, 5, 0, 0, 0, 0, 4, 3, 0, 0, 4, 4, 0, 0, 3, 0, 0, 0, 0, 5, 0, 0, 0, 1, 3, 3, 3, 5, 4, 4, 0, 3, 0, 3, 2, 0, 0, 2, 2, 4, 3, 0, 3, 0, 3, 0, 2, 0, 4, 0, 0, 3, 3, 3, 3, 0, 1, 0, 3, 2, 3, 0, 2, 4, 0, 2, 0, 0, 0, 3, 2, 0, 3, 3, 0, 3, 3, 3, 1, 0, 0, 0, 3, 0, 0, 0, 1, 0, 0, 4, 4, 0, 2, 0, 0, 1, 0, 2, 0, 2, 0, 0, 2, 1, 1, 4, 4, 4, 0, 0, 0, 3, 2, 0, 0, 1, 0, 5, 0, 0, 2, 1, 1, 3, 3, 0, 0, 3, 3, 4, 4, 0, 4, 0, 4, 5, 3, 0, 0, 3, 0, 3, 0, 2, 0, 3, 0, 0, 0, 4, 0, 1, 0, 0, 2, 0, 5, 0, 0, 1, 0, 0, 4, 0, 0, 5, 0, 3, 2, 0, 2, 5, 3, 3, 0, 2, 0, 4, 4, 0, 4, 3, 3, 4, 0, 0, 2, 0, 0, 3, 0, 2
 |5, 0, 3, 0, 3, 1, 0, 3, 2, 5, 0, 0, 2, 0, 0, 0, 0, 0, 0, 0, 1, 0, 1, 0, 4, 0, 3, 3, 0, 2, 0, 4, 0, 0, 0, 4, 1, 0, 0, 1, 1, 1, 0, 0, 1, 0, 2, 2, 0, 0, 0, 0, 0, 2, 5, 0, 0, 0, 0, 4, 0, 1, 0, 4, 2, 2, 0, 3, 2, 5, 3, 0, 5, 4, 0, 3, 2, 0, 2, 0, 1, 4, 4, 4, 4, 4, 0, 0, 0, 0, 2, 0, 0, 2, 1, 1, 0, 0, 4, 4, 4, 0, 0, 4, 4, 5, 4, 0, 0, 0, 2, 3, 2, 2, 0, 0, 2, 3, 0, 0, 3, 2, 0, 1, 1, 1, 3, 0, 2, 1, 1, 0, 0, 0, 0, 0, 0, 0, 4, 0, 3, 0, 0, 2, 3, 0, 0, 0, 0, 1, 0, 2, 0, 4, 0, 1, 0, 1, 1, 0, 0, 0, 0, 2, 0, 3, 0, 0, 0, 1, 0, 0, 2, 0, 4, 2, 2, 0, 0, 2, 0, 0, 2, 0, 0, 0, 0, 4, 4, 4, 0, 4, 4, 3, 0, 3, 2, 0, 0, 4, 0, 2, 2, 0, 5, 0, 3, 0, 3, 2, 0, 0, 0, 0, 0, 0, 5, 3, 2, 0, 0, 4, 4, 0, 4, 0, 3, 3, 0, 0, 0, 0, 0, 1, 3, 0, 0, 0, 0, 2, 0, 4, 0, 0, 0, 2, 4, 0, 3, 0, 3, 0, 1, 0, 1, 4, 3, 0, 4, 0, 3, 5, 0, 1, 0, 2, 2, 0, 3, 1, 0, 4, 4, 0, 3, 0, 0, 2, 0, 0, 0, 0, 4, 0, 4, 0, 0, 5, 0, 0, 0, 0, 2, 2, 0, 2, 2, 0, 1, 0
 |4, 3, 0, 6, 5, 3, 0, 0, 8, 0, 0, 0, 8, 0, 6, 7, 0, 6, 1, 0, 1, 5, 0, 1, 6, 5, 4, 0, 0, 0, 0, 1, 0, 3, 2, 0, 0, 5, 0, 8, 5, 0, 8, 0, 6, 0, 0, 4, 0, 5, 4, 0, 0, 0, 9, 0, 5, 0, 0, 0, 5, 5, 4, 0, 0, 0, 9, 0, 0, 0, 0, 0, 0, 8, 6, 10, 8, 0, 0, 0, 3, 0, 5, 3, 8, 4, 0, 0, 0, 1, 10, 7, 0, 0, 8, 0, 9, 0, 0, 0, 0, 0, 0, 0, 0, 0, 7, 0, 0, 3, 0, 4, 4, 0, 0, 0, 7, 0, 0, 0, 9, 9, 8, 7, 0, 0, 0, 0, 5, 0, 7, 0, 2, 0, 1, 0, 5, 0, 6, 0, 4, 5, 5, 0, 0, 3, 0, 9, 9, 0, 8, 0, 0, 0, 0, 5, 0, 0, 0, 9, 0, 0, 2, 2, 0, 0, 0, 5, 0, 3, 2, 0, 0, 0, 0, 3, 2, 0, 4, 3, 0, 6, 0, 9, 4, 0, 6, 5, 3, 0, 5, 4, 0, 10, 0, 0, 0, 0, 10, 0, 0, 5, 3, 3, 5, 0, 4, 4, 0, 2, 0, 0, 5, 6, 0, 4, 9, 0, 8, 0, 0, 0, 10, 7, 7, 9, 8, 0, 0, 0, 9, 0, 6, 6, 7, 0, 2, 7, 0, 4, 6, 0, 0, 6, 5, 0, 9, 8, 0, 8, 0, 7, 0, 6, 0, 0, 3, 2, 10, 0, 6, 0, 4, 2, 8, 0, 6, 4, 0, 2, 0, 8, 7, 6, 0, 0, 0, 2, 0, 0, 0, 7, 7, 6, 0, 0, 0, 6, 0, 1, 0, 0, 0, 7, 7, 0, 5, 0, 0, 7
 |0, 0, 10, 0, 0, 0, 8, 6, 0, 1, 2, 1, 0, 7, 0, 0, 5, 0, 0, 7, 0, 0, 6, 0, 0, 0, 0, 4, 4, 4, 9, 0, 8, 0, 0, 3, 4, 0, 4, 0, 0, 1, 0, 3, 0, 6, 4, 0, 9, 0, 0, 2, 1, 1, 0, 6, 0, 9, 7, 4, 0, 0, 0, 3, 3, 2, 0, 5, 4, 6, 6, 6, 8, 0, 0, 0, 0, 5, 6, 5, 0, 8, 0, 0, 0, 0, 9, 7, 7, 0, 0, 0, 4, 7, 0, 3, 0, 5, 3, 9, 7, 7, 10, 9, 8, 4, 0, 1, 4, 0, 3, 0, 0, 4, 8, 7, 0, 7, 6, 5, 0, 0, 0, 0, 2, 1, 9, 9, 0, 2, 0, 2, 0, 7, 0, 9, 0, 4, 0, 4, 0, 0, 0, 5, 6, 0, 4, 0, 0, 7, 0, 3, 1, 8, 7, 0, 10, 9, 8, 0, 2, 1, 0, 0, 5, 6, 4, 0, 10, 0, 0, 5, 5, 5, 7, 0, 0, 3, 0, 0, 6, 0, 5, 0, 0, 2, 0, 0, 0, 8, 0, 0, 8, 0, 5, 6, 5, 4, 0, 8, 8, 0, 0, 0, 0, 2, 0, 0, 9, 0, 6, 4, 0, 0, 8, 0, 0, 6, 0, 4, 3, 2, 0, 0, 0, 0, 0, 8, 6, 5, 0, 9, 0, 0, 0, 8, 0, 0, 6, 0, 0, 6, 6, 0, 0, 3, 0, 0, 4, 0, 6, 0, 8, 0, 6, 4, 0, 0, 0, 8, 0, 5, 0, 0, 0, 6, 0, 0, 7, 0, 8, 0, 0, 0, 7, 6, 3, 0, 1, 6, 6, 0, 0, 0, 4, 5, 4, 0, 8, 0, 5, 8, 8, 0, 0, 3, 0, 6, 4, 0|];